graphs/r125.1.col
p edge 125 209
e 1 25
e 1 45
e 1 55
e 1 80
e 2 22
e 2 82
e 3 24
e 3 99
e 3 103
e 4 27
e 4 36
e 4 125
e 6 22
e 6 37
e 6 85
e 6 109
e 6 110
e 6 121
e 7 21
e 7 96
e 8 118
e 9 122
e 10 14
e 10 18
e 10 30
e 10 37
e 10 46
e 10 53
e 10 54
e 10 98
e 11 65
e 11 81
e 11 92
e 12 40
e 12 64
e 12 106
e 13 51
e 13 77
e 13 90
e 13 111
e 14 39
e 14 43
e 14 46
e 14 98
e 14 115
e 15 29
e 16 58
e 16 62
e 17 19
e 17 76
e 18 30
e 18 37
e 18 53
e 18 54
e 18 85
e 18 109
e 19 76
e 19 80
e 20 63
e 20 72
e 21 48
e 21 96
e 21 113
e 22 37
e 22 85
e 22 109
e 24 99
e 25 45
e 25 55
e 25 80
e 26 49
e 26 68
e 27 36
e 27 125
e 28 44
e 28 56
e 28 65
e 28 66
e 28 117
e 29 91
e 30 37
e 30 53
e 30 54
e 30 109
e 31 66
e 31 88
e 31 101
e 31 107
e 31 117
e 32 95
e 32 104
e 33 34
e 33 52
e 34 122
e 35 51
e 35 59
e 35 77
e 35 79
e 35 111
e 36 87
e 36 108
e 36 120
e 36 125
e 37 53
e 37 85
e 37 109
e 38 41
e 38 91
e 39 101
e 39 115
e 41 91
e 42 75
e 42 94
e 43 53
e 43 54
e 44 56
e 44 65
e 44 66
e 44 81
e 44 117
e 45 55
e 45 80
e 46 98
e 46 115
e 47 78
e 47 83
e 48 96
e 48 100
e 49 68
e 50 69
e 50 75
e 50 84
e 50 86
e 50 89
e 50 112
e 51 59
e 51 77
e 51 79
e 51 111
e 52 67
e 52 97
e 53 54
e 55 80
e 56 81
e 56 103
e 57 110
e 57 118
e 57 121
e 57 124
e 58 62
e 58 89
e 59 62
e 59 79
e 59 111
e 60 74
e 60 91
e 61 74
e 63 72
e 63 83
e 64 71
e 64 73
e 65 81
e 65 92
e 66 88
e 66 101
e 66 117
e 67 97
e 69 75
e 69 84
e 69 86
e 70 106
e 70 116
e 71 73
e 73 100
e 74 91
e 76 93
e 77 111
e 84 86
e 84 89
e 84 112
e 85 109
e 86 89
e 86 112
e 87 102
e 87 108
e 87 120
e 87 123
e 87 125
e 88 101
e 88 107
e 89 112
e 92 114
e 95 104
e 96 113
e 98 121
e 98 124
e 101 115
e 101 117
e 102 108
e 102 123
e 106 116
e 107 119
e 108 120
e 108 123
e 108 125
e 110 121
e 110 124
e 120 125
e 121 124
