results/clicolcom_results/r125.1.col.log
graphs/r125.1.col
c found max clique of size 5
c found chromatic number: 5
time: 0
